
Gurobi 9.5.0 (win64) logging started Tue Jun  7 18:24:03 2022

Set parameter LogFile to value "C:\Users\kmajd1\Documents\NNRepLayer_v2\demos\examples\tc7_walking_example\v2\repair_bound_constraint\repair_net/logs/opt_log_6_7_2022_18_23_44.log"
Gurobi Optimizer version 9.5.0 build v9.5.0rc5 (win64)
Thread count: 8 physical cores, 16 logical processors, using up to 16 threads
Optimize a model with 366 rows, 134 columns and 1177 nonzeros
Model fingerprint: 0x8170362f
Model has 101 quadratic objective terms
Coefficient statistics:
  Matrix range     [4e-03, 1e+01]
  Objective range  [3e-05, 4e-01]
  QObjective range [2e-02, 2e+00]
  Bounds range     [1e+01, 4e+01]
  RHS range        [8e-04, 1e+01]
Presolve removed 210 rows and 6 columns
Presolve time: 0.01s
Presolved: 156 rows, 128 columns, 971 nonzeros
Presolved model has 101 quadratic objective terms
Ordering time: 0.00s

Barrier statistics:
 Dense cols : 13
 AA' NZ     : 1.412e+03
 Factor NZ  : 2.379e+03
 Factor Ops : 4.780e+04 (less than 1 second per iteration)
 Threads    : 1

                  Objective                Residual
Iter       Primal          Dual         Primal    Dual     Compl     Time
   0   1.62011038e+07 -1.70093193e+07  3.87e+03 4.00e+02  8.66e+05     0s
   1   5.64055451e+06 -6.51357113e+06  2.15e+03 2.22e+02  4.89e+05     0s
   2   2.81049568e+03 -1.65842655e+06  6.04e+01 6.24e+00  2.41e+04     0s
   3   8.68870793e+01 -8.94134836e+05  2.32e+00 2.40e-01  3.30e+03     0s
   4   1.08879684e+02 -8.38113875e+04  7.31e-02 7.55e-03  2.69e+02     0s
   5   1.06505035e+02 -3.70961762e+02  1.99e-04 2.06e-05  1.52e+00     0s
   6   2.11984584e+01 -4.06975204e+01  1.99e-10 2.06e-11  1.97e-01     0s
   7   7.98400781e+00 -3.43424374e+00  2.54e-11 2.63e-12  3.64e-02     0s
   8   5.95438863e+00  2.04894050e+00  3.23e-12 3.29e-13  1.24e-02     0s
   9   5.67083985e+00  4.85731794e+00  1.71e-13 2.49e-12  2.59e-03     0s
  10   5.62791031e+00  5.45011029e+00  2.59e-13 7.53e-13  5.66e-04     0s
  11   5.61501405e+00  5.60196057e+00  4.76e-13 1.23e-12  4.16e-05     0s
  12   5.61373200e+00  5.61353489e+00  1.59e-12 5.37e-13  6.28e-07     0s
  13   5.61369279e+00  5.61369185e+00  1.51e-11 1.75e-10  2.98e-09     0s
  14   5.61369203e+00  5.61369192e+00  1.26e-09 1.93e-09  2.97e-12     0s

Barrier solved model in 14 iterations and 0.03 seconds (0.00 work units)
Optimal objective 5.61369203e+00

